c Reduced graph for miles1000_0 generated by Cyril Grelier
p edge 114 2877
e 1 2
e 1 6
e 1 7
e 1 9
e 1 10
e 1 11
e 1 13
e 1 17
e 1 18
e 1 19
e 1 20
e 1 21
e 1 25
e 1 26
e 1 27
e 1 33
e 1 34
e 1 35
e 1 36
e 1 39
e 1 40
e 1 41
e 1 42
e 1 43
e 1 44
e 1 45
e 1 47
e 1 48
e 1 49
e 1 54
e 1 55
e 1 56
e 1 57
e 1 61
e 1 62
e 1 65
e 1 67
e 1 68
e 1 69
e 1 70
e 1 71
e 1 77
e 1 78
e 1 79
e 1 80
e 1 83
e 1 84
e 1 85
e 1 86
e 1 87
e 1 88
e 1 89
e 1 90
e 1 92
e 1 93
e 1 94
e 1 95
e 1 96
e 1 97
e 1 100
e 1 101
e 1 102
e 1 104
e 1 106
e 1 108
e 1 109
e 1 110
e 1 112
e 1 114
e 2 5
e 2 6
e 2 7
e 2 9
e 2 10
e 2 11
e 2 17
e 2 18
e 2 19
e 2 20
e 2 21
e 2 25
e 2 26
e 2 27
e 2 29
e 2 30
e 2 33
e 2 34
e 2 35
e 2 37
e 2 39
e 2 40
e 2 41
e 2 43
e 2 44
e 2 45
e 2 48
e 2 49
e 2 51
e 2 54
e 2 55
e 2 57
e 2 58
e 2 59
e 2 61
e 2 65
e 2 68
e 2 69
e 2 70
e 2 77
e 2 78
e 2 80
e 2 81
e 2 86
e 2 89
e 2 90
e 2 92
e 2 93
e 2 95
e 2 96
e 2 97
e 2 99
e 2 100
e 2 101
e 2 102
e 2 108
e 2 110
e 2 111
e 2 112
e 2 114
e 3 6
e 3 9
e 3 10
e 3 12
e 3 14
e 3 17
e 3 18
e 3 26
e 3 33
e 3 38
e 3 39
e 3 40
e 3 42
e 3 44
e 3 47
e 3 54
e 3 55
e 3 56
e 3 60
e 3 61
e 3 63
e 3 65
e 3 66
e 3 69
e 3 70
e 3 71
e 3 72
e 3 77
e 3 78
e 3 79
e 3 83
e 3 84
e 3 85
e 3 88
e 3 89
e 3 90
e 3 93
e 3 94
e 3 98
e 3 99
e 3 100
e 3 101
e 3 102
e 3 103
e 3 104
e 3 106
e 3 107
e 3 109
e 3 110
e 3 112
e 3 113
e 4 6
e 4 8
e 4 9
e 4 10
e 4 12
e 4 13
e 4 14
e 4 17
e 4 18
e 4 25
e 4 28
e 4 33
e 4 36
e 4 41
e 4 42
e 4 47
e 4 48
e 4 50
e 4 55
e 4 56
e 4 62
e 4 67
e 4 69
e 4 71
e 4 77
e 4 78
e 4 79
e 4 83
e 4 84
e 4 85
e 4 87
e 4 88
e 4 92
e 4 93
e 4 94
e 4 100
e 4 101
e 4 102
e 4 104
e 4 105
e 4 106
e 4 107
e 4 109
e 4 112
e 4 113
e 5 11
e 5 26
e 5 27
e 5 34
e 5 35
e 5 37
e 5 39
e 5 40
e 5 44
e 5 49
e 5 51
e 5 57
e 5 58
e 5 59
e 5 61
e 5 65
e 5 70
e 5 73
e 5 80
e 5 81
e 5 89
e 5 90
e 5 96
e 5 97
e 5 99
e 5 110
e 5 111
e 6 8
e 6 9
e 6 10
e 6 11
e 6 12
e 6 13
e 6 14
e 6 17
e 6 18
e 6 19
e 6 20
e 6 25
e 6 26
e 6 28
e 6 33
e 6 34
e 6 36
e 6 38
e 6 39
e 6 40
e 6 41
e 6 42
e 6 43
e 6 44
e 6 47
e 6 48
e 6 49
e 6 50
e 6 54
e 6 55
e 6 56
e 6 60
e 6 61
e 6 62
e 6 63
e 6 65
e 6 66
e 6 67
e 6 69
e 6 70
e 6 71
e 6 72
e 6 77
e 6 78
e 6 79
e 6 83
e 6 84
e 6 85
e 6 86
e 6 87
e 6 88
e 6 89
e 6 90
e 6 92
e 6 93
e 6 94
e 6 95
e 6 98
e 6 100
e 6 101
e 6 102
e 6 103
e 6 104
e 6 105
e 6 106
e 6 107
e 6 108
e 6 109
e 6 112
e 6 113
e 7 9
e 7 10
e 7 11
e 7 13
e 7 17
e 7 18
e 7 19
e 7 20
e 7 21
e 7 25
e 7 27
e 7 30
e 7 33
e 7 34
e 7 35
e 7 39
e 7 40
e 7 41
e 7 43
e 7 45
e 7 46
e 7 48
e 7 49
e 7 54
e 7 55
e 7 57
e 7 58
e 7 61
e 7 65
e 7 68
e 7 69
e 7 77
e 7 78
e 7 79
e 7 80
e 7 86
e 7 92
e 7 93
e 7 95
e 7 96
e 7 97
e 7 100
e 7 101
e 7 102
e 7 108
e 7 110
e 7 111
e 7 112
e 7 114
e 8 9
e 8 10
e 8 12
e 8 13
e 8 14
e 8 17
e 8 18
e 8 25
e 8 28
e 8 33
e 8 36
e 8 41
e 8 42
e 8 47
e 8 48
e 8 50
e 8 55
e 8 56
e 8 62
e 8 66
e 8 67
e 8 69
e 8 71
e 8 77
e 8 78
e 8 79
e 8 83
e 8 84
e 8 85
e 8 87
e 8 88
e 8 92
e 8 93
e 8 94
e 8 100
e 8 101
e 8 102
e 8 103
e 8 104
e 8 105
e 8 106
e 8 107
e 8 109
e 8 112
e 8 113
e 9 10
e 9 11
e 9 12
e 9 13
e 9 14
e 9 17
e 9 18
e 9 19
e 9 20
e 9 25
e 9 26
e 9 27
e 9 28
e 9 33
e 9 34
e 9 35
e 9 36
e 9 39
e 9 40
e 9 41
e 9 42
e 9 43
e 9 44
e 9 45
e 9 47
e 9 48
e 9 49
e 9 50
e 9 54
e 9 55
e 9 56
e 9 61
e 9 62
e 9 65
e 9 66
e 9 67
e 9 68
e 9 69
e 9 70
e 9 71
e 9 72
e 9 77
e 9 78
e 9 79
e 9 80
e 9 83
e 9 84
e 9 85
e 9 86
e 9 87
e 9 88
e 9 89
e 9 90
e 9 92
e 9 93
e 9 94
e 9 95
e 9 96
e 9 98
e 9 99
e 9 100
e 9 101
e 9 102
e 9 103
e 9 104
e 9 105
e 9 106
e 9 107
e 9 108
e 9 109
e 9 110
e 9 112
e 9 113
e 9 114
e 10 11
e 10 12
e 10 13
e 10 14
e 10 17
e 10 18
e 10 19
e 10 20
e 10 25
e 10 26
e 10 27
e 10 28
e 10 33
e 10 34
e 10 35
e 10 36
e 10 39
e 10 40
e 10 41
e 10 42
e 10 43
e 10 44
e 10 45
e 10 47
e 10 48
e 10 49
e 10 50
e 10 54
e 10 55
e 10 56
e 10 61
e 10 62
e 10 65
e 10 66
e 10 67
e 10 69
e 10 70
e 10 71
e 10 72
e 10 77
e 10 78
e 10 79
e 10 80
e 10 83
e 10 84
e 10 85
e 10 86
e 10 87
e 10 88
e 10 89
e 10 90
e 10 92
e 10 93
e 10 94
e 10 95
e 10 96
e 10 98
e 10 100
e 10 101
e 10 102
e 10 103
e 10 104
e 10 105
e 10 106
e 10 107
e 10 108
e 10 109
e 10 110
e 10 112
e 10 113
e 10 114
e 11 13
e 11 17
e 11 18
e 11 19
e 11 20
e 11 21
e 11 25
e 11 26
e 11 27
e 11 29
e 11 30
e 11 33
e 11 34
e 11 35
e 11 37
e 11 39
e 11 40
e 11 41
e 11 43
e 11 44
e 11 45
e 11 48
e 11 49
e 11 51
e 11 54
e 11 55
e 11 56
e 11 57
e 11 58
e 11 59
e 11 61
e 11 65
e 11 68
e 11 69
e 11 70
e 11 77
e 11 78
e 11 79
e 11 80
e 11 81
e 11 86
e 11 89
e 11 90
e 11 92
e 11 93
e 11 95
e 11 96
e 11 97
e 11 99
e 11 100
e 11 101
e 11 102
e 11 108
e 11 110
e 11 111
e 11 112
e 11 114
e 12 13
e 12 14
e 12 17
e 12 18
e 12 25
e 12 26
e 12 28
e 12 33
e 12 36
e 12 38
e 12 39
e 12 40
e 12 42
e 12 44
e 12 47
e 12 50
e 12 54
e 12 55
e 12 56
e 12 60
e 12 61
e 12 62
e 12 63
e 12 65
e 12 66
e 12 67
e 12 69
e 12 70
e 12 71
e 12 72
e 12 77
e 12 78
e 12 79
e 12 83
e 12 84
e 12 85
e 12 87
e 12 88
e 12 89
e 12 90
e 12 92
e 12 93
e 12 94
e 12 98
e 12 100
e 12 101
e 12 102
e 12 103
e 12 104
e 12 105
e 12 106
e 12 107
e 12 109
e 12 112
e 12 113
e 13 14
e 13 17
e 13 18
e 13 19
e 13 20
e 13 25
e 13 28
e 13 33
e 13 36
e 13 39
e 13 41
e 13 42
e 13 43
e 13 47
e 13 48
e 13 50
e 13 54
e 13 55
e 13 56
e 13 61
e 13 62
e 13 65
e 13 67
e 13 69
e 13 71
e 13 77
e 13 78
e 13 79
e 13 83
e 13 84
e 13 85
e 13 86
e 13 87
e 13 88
e 13 92
e 13 93
e 13 94
e 13 95
e 13 100
e 13 101
e 13 102
e 13 104
e 13 105
e 13 106
e 13 107
e 13 108
e 13 109
e 13 112
e 13 113
e 14 17
e 14 18
e 14 25
e 14 28
e 14 33
e 14 36
e 14 38
e 14 41
e 14 42
e 14 47
e 14 50
e 14 54
e 14 55
e 14 56
e 14 62
e 14 65
e 14 66
e 14 67
e 14 69
e 14 70
e 14 71
e 14 72
e 14 77
e 14 78
e 14 79
e 14 83
e 14 84
e 14 85
e 14 87
e 14 88
e 14 89
e 14 92
e 14 93
e 14 94
e 14 98
e 14 100
e 14 101
e 14 102
e 14 103
e 14 104
e 14 105
e 14 106
e 14 107
e 14 109
e 14 112
e 14 113
e 15 16
e 15 22
e 15 23
e 15 24
e 15 29
e 15 30
e 15 31
e 15 32
e 15 46
e 15 52
e 15 74
e 15 75
e 15 76
e 15 82
e 15 91
e 16 22
e 16 23
e 16 24
e 16 31
e 16 32
e 16 74
e 16 75
e 16 82
e 16 91
e 17 18
e 17 19
e 17 20
e 17 25
e 17 26
e 17 27
e 17 28
e 17 33
e 17 34
e 17 35
e 17 36
e 17 39
e 17 40
e 17 41
e 17 42
e 17 43
e 17 44
e 17 45
e 17 47
e 17 48
e 17 49
e 17 50
e 17 54
e 17 55
e 17 56
e 17 61
e 17 62
e 17 65
e 17 66
e 17 67
e 17 68
e 17 69
e 17 70
e 17 71
e 17 72
e 17 77
e 17 78
e 17 79
e 17 80
e 17 83
e 17 84
e 17 85
e 17 86
e 17 87
e 17 88
e 17 89
e 17 90
e 17 92
e 17 93
e 17 94
e 17 95
e 17 96
e 17 97
e 17 98
e 17 99
e 17 100
e 17 101
e 17 102
e 17 103
e 17 104
e 17 105
e 17 106
e 17 107
e 17 108
e 17 109
e 17 110
e 17 112
e 17 113
e 17 114
e 18 19
e 18 20
e 18 25
e 18 26
e 18 28
e 18 33
e 18 34
e 18 35
e 18 36
e 18 39
e 18 40
e 18 41
e 18 42
e 18 43
e 18 47
e 18 48
e 18 49
e 18 50
e 18 54
e 18 55
e 18 56
e 18 61
e 18 62
e 18 65
e 18 66
e 18 67
e 18 69
e 18 70
e 18 71
e 18 72
e 18 77
e 18 78
e 18 79
e 18 80
e 18 83
e 18 84
e 18 85
e 18 86
e 18 87
e 18 88
e 18 89
e 18 92
e 18 93
e 18 94
e 18 95
e 18 98
e 18 100
e 18 101
e 18 102
e 18 103
e 18 104
e 18 105
e 18 106
e 18 107
e 18 108
e 18 109
e 18 112
e 18 113
e 18 114
e 19 20
e 19 21
e 19 25
e 19 26
e 19 27
e 19 30
e 19 33
e 19 34
e 19 35
e 19 36
e 19 39
e 19 40
e 19 41
e 19 42
e 19 43
e 19 44
e 19 45
e 19 46
e 19 48
e 19 49
e 19 54
e 19 55
e 19 56
e 19 57
e 19 58
e 19 59
e 19 61
e 19 62
e 19 65
e 19 68
e 19 69
e 19 70
e 19 77
e 19 78
e 19 79
e 19 80
e 19 81
e 19 83
e 19 85
e 19 86
e 19 88
e 19 89
e 19 90
e 19 92
e 19 93
e 19 94
e 19 95
e 19 96
e 19 97
e 19 99
e 19 100
e 19 101
e 19 102
e 19 104
e 19 106
e 19 108
e 19 110
e 19 111
e 19 112
e 19 114
e 20 21
e 20 25
e 20 26
e 20 27
e 20 33
e 20 34
e 20 35
e 20 36
e 20 39
e 20 40
e 20 41
e 20 42
e 20 43
e 20 45
e 20 46
e 20 48
e 20 49
e 20 54
e 20 55
e 20 56
e 20 57
e 20 61
e 20 62
e 20 65
e 20 67
e 20 68
e 20 69
e 20 70
e 20 77
e 20 78
e 20 79
e 20 80
e 20 83
e 20 84
e 20 85
e 20 86
e 20 87
e 20 88
e 20 90
e 20 92
e 20 93
e 20 94
e 20 95
e 20 96
e 20 97
e 20 100
e 20 101
e 20 102
e 20 104
e 20 106
e 20 108
e 20 109
e 20 112
e 20 114
e 21 29
e 21 30
e 21 34
e 21 35
e 21 43
e 21 45
e 21 46
e 21 57
e 21 59
e 21 68
e 21 75
e 21 80
e 21 86
e 21 91
e 21 95
e 21 97
e 21 108
e 21 111
e 21 114
e 22 23
e 22 24
e 22 29
e 22 31
e 22 32
e 22 52
e 22 53
e 22 64
e 22 73
e 22 74
e 22 75
e 22 76
e 22 82
e 22 91
e 23 24
e 23 29
e 23 31
e 23 32
e 23 52
e 23 53
e 23 64
e 23 73
e 23 74
e 23 75
e 23 76
e 23 82
e 23 91
e 24 31
e 24 32
e 24 52
e 24 74
e 24 75
e 24 76
e 24 82
e 24 91
e 25 26
e 25 27
e 25 28
e 25 33
e 25 34
e 25 35
e 25 36
e 25 39
e 25 40
e 25 41
e 25 42
e 25 43
e 25 45
e 25 47
e 25 48
e 25 49
e 25 50
e 25 54
e 25 55
e 25 56
e 25 61
e 25 62
e 25 65
e 25 67
e 25 68
e 25 69
e 25 70
e 25 71
e 25 77
e 25 78
e 25 79
e 25 80
e 25 83
e 25 84
e 25 85
e 25 86
e 25 87
e 25 88
e 25 89
e 25 92
e 25 93
e 25 94
e 25 95
e 25 100
e 25 101
e 25 102
e 25 103
e 25 104
e 25 105
e 25 106
e 25 107
e 25 108
e 25 109
e 25 112
e 25 113
e 25 114
e 26 27
e 26 33
e 26 34
e 26 35
e 26 37
e 26 38
e 26 39
e 26 40
e 26 44
e 26 49
e 26 54
e 26 55
e 26 56
e 26 58
e 26 60
e 26 61
e 26 63
e 26 65
e 26 66
e 26 69
e 26 70
e 26 72
e 26 77
e 26 78
e 26 80
e 26 81
e 26 83
e 26 89
e 26 90
e 26 92
e 26 95
e 26 96
e 26 98
e 26 99
e 26 100
e 26 101
e 26 102
e 26 103
e 26 106
e 26 107
e 26 110
e 26 111
e 26 112
e 26 113
e 27 29
e 27 30
e 27 33
e 27 34
e 27 35
e 27 37
e 27 39
e 27 40
e 27 43
e 27 44
e 27 45
e 27 49
e 27 51
e 27 54
e 27 55
e 27 57
e 27 58
e 27 59
e 27 61
e 27 65
e 27 68
e 27 70
e 27 77
e 27 78
e 27 80
e 27 81
e 27 86
e 27 89
e 27 90
e 27 92
e 27 95
e 27 96
e 27 97
e 27 99
e 27 100
e 27 108
e 27 110
e 27 111
e 27 112
e 27 114
e 28 33
e 28 36
e 28 41
e 28 42
e 28 47
e 28 48
e 28 50
e 28 54
e 28 55
e 28 56
e 28 62
e 28 66
e 28 67
e 28 69
e 28 71
e 28 77
e 28 78
e 28 79
e 28 83
e 28 84
e 28 85
e 28 87
e 28 88
e 28 92
e 28 93
e 28 94
e 28 100
e 28 101
e 28 102
e 28 104
e 28 105
e 28 106
e 28 107
e 28 109
e 28 112
e 28 113
e 29 30
e 29 31
e 29 32
e 29 34
e 29 35
e 29 37
e 29 45
e 29 46
e 29 51
e 29 52
e 29 53
e 29 57
e 29 59
e 29 64
e 29 68
e 29 73
e 29 74
e 29 75
e 29 76
e 29 80
e 29 91
e 29 97
e 29 111
e 29 114
e 30 31
e 30 32
e 30 34
e 30 35
e 30 37
e 30 43
e 30 45
e 30 46
e 30 51
e 30 57
e 30 59
e 30 68
e 30 75
e 30 80
e 30 91
e 30 97
e 30 108
e 30 111
e 30 114
e 31 32
e 31 46
e 31 52
e 31 74
e 31 75
e 31 76
e 31 82
e 31 91
e 32 52
e 32 74
e 32 75
e 32 76
e 32 82
e 32 91
e 33 34
e 33 35
e 33 36
e 33 39
e 33 40
e 33 41
e 33 42
e 33 43
e 33 45
e 33 47
e 33 48
e 33 49
e 33 50
e 33 54
e 33 55
e 33 56
e 33 61
e 33 62
e 33 65
e 33 66
e 33 67
e 33 68
e 33 69
e 33 70
e 33 71
e 33 72
e 33 77
e 33 78
e 33 79
e 33 80
e 33 83
e 33 84
e 33 85
e 33 86
e 33 87
e 33 88
e 33 89
e 33 90
e 33 92
e 33 93
e 33 94
e 33 95
e 33 96
e 33 98
e 33 100
e 33 101
e 33 102
e 33 103
e 33 104
e 33 105
e 33 106
e 33 107
e 33 108
e 33 109
e 33 112
e 33 113
e 33 114
e 34 35
e 34 37
e 34 39
e 34 40
e 34 41
e 34 43
e 34 44
e 34 45
e 34 49
e 34 51
e 34 54
e 34 55
e 34 57
e 34 58
e 34 59
e 34 61
e 34 65
e 34 68
e 34 70
e 34 77
e 34 78
e 34 80
e 34 81
e 34 86
e 34 89
e 34 90
e 34 92
e 34 95
e 34 96
e 34 97
e 34 99
e 34 100
e 34 101
e 34 102
e 34 108
e 34 110
e 34 111
e 34 112
e 34 114
e 35 37
e 35 39
e 35 40
e 35 41
e 35 43
e 35 44
e 35 45
e 35 46
e 35 48
e 35 49
e 35 51
e 35 54
e 35 55
e 35 57
e 35 58
e 35 59
e 35 61
e 35 65
e 35 68
e 35 69
e 35 77
e 35 78
e 35 80
e 35 81
e 35 86
e 35 90
e 35 92
e 35 95
e 35 96
e 35 97
e 35 99
e 35 100
e 35 101
e 35 102
e 35 108
e 35 110
e 35 111
e 35 112
e 35 114
e 36 39
e 36 41
e 36 42
e 36 43
e 36 47
e 36 48
e 36 50
e 36 54
e 36 55
e 36 56
e 36 62
e 36 65
e 36 66
e 36 67
e 36 69
e 36 71
e 36 77
e 36 78
e 36 79
e 36 83
e 36 84
e 36 85
e 36 86
e 36 87
e 36 88
e 36 92
e 36 93
e 36 94
e 36 95
e 36 100
e 36 101
e 36 102
e 36 103
e 36 104
e 36 105
e 36 106
e 36 107
e 36 109
e 36 112
e 36 113
e 37 39
e 37 44
e 37 49
e 37 51
e 37 53
e 37 57
e 37 58
e 37 59
e 37 61
e 37 64
e 37 73
e 37 80
e 37 81
e 37 90
e 37 96
e 37 97
e 37 99
e 37 110
e 37 111
e 38 40
e 38 42
e 38 44
e 38 47
e 38 56
e 38 60
e 38 63
e 38 66
e 38 70
e 38 72
e 38 83
e 38 88
e 38 89
e 38 90
e 38 98
e 38 103
e 38 106
e 38 107
e 38 112
e 38 113
e 39 40
e 39 41
e 39 42
e 39 43
e 39 44
e 39 45
e 39 48
e 39 49
e 39 51
e 39 54
e 39 55
e 39 56
e 39 57
e 39 58
e 39 59
e 39 61
e 39 65
e 39 68
e 39 69
e 39 70
e 39 72
e 39 77
e 39 78
e 39 79
e 39 80
e 39 81
e 39 83
e 39 86
e 39 88
e 39 89
e 39 90
e 39 92
e 39 93
e 39 94
e 39 95
e 39 96
e 39 97
e 39 98
e 39 99
e 39 100
e 39 101
e 39 102
e 39 103
e 39 106
e 39 108
e 39 110
e 39 111
e 39 112
e 39 114
e 40 41
e 40 42
e 40 43
e 40 44
e 40 47
e 40 49
e 40 54
e 40 55
e 40 56
e 40 58
e 40 60
e 40 61
e 40 63
e 40 65
e 40 66
e 40 69
e 40 70
e 40 72
e 40 77
e 40 78
e 40 79
e 40 80
e 40 81
e 40 83
e 40 84
e 40 86
e 40 88
e 40 89
e 40 90
e 40 92
e 40 93
e 40 94
e 40 95
e 40 96
e 40 98
e 40 99
e 40 100
e 40 101
e 40 102
e 40 103
e 40 104
e 40 106
e 40 107
e 40 108
e 40 110
e 40 112
e 40 113
e 40 114
e 41 42
e 41 43
e 41 45
e 41 47
e 41 48
e 41 50
e 41 54
e 41 55
e 41 56
e 41 61
e 41 62
e 41 65
e 41 67
e 41 68
e 41 69
e 41 70
e 41 71
e 41 77
e 41 78
e 41 79
e 41 80
e 41 83
e 41 84
e 41 85
e 41 86
e 41 87
e 41 88
e 41 92
e 41 93
e 41 94
e 41 95
e 41 100
e 41 101
e 41 102
e 41 104
e 41 105
e 41 106
e 41 107
e 41 108
e 41 109
e 41 112
e 41 114
e 42 47
e 42 48
e 42 50
e 42 54
e 42 55
e 42 56
e 42 62
e 42 65
e 42 66
e 42 67
e 42 69
e 42 70
e 42 71
e 42 72
e 42 77
e 42 78
e 42 79
e 42 83
e 42 84
e 42 85
e 42 87
e 42 88
e 42 89
e 42 92
e 42 93
e 42 94
e 42 95
e 42 98
e 42 100
e 42 101
e 42 102
e 42 103
e 42 104
e 42 105
e 42 106
e 42 107
e 42 109
e 42 112
e 42 113
e 43 44
e 43 45
e 43 46
e 43 48
e 43 49
e 43 54
e 43 55
e 43 57
e 43 58
e 43 59
e 43 61
e 43 65
e 43 68
e 43 69
e 43 70
e 43 77
e 43 78
e 43 79
e 43 80
e 43 86
e 43 88
e 43 90
e 43 92
e 43 93
e 43 94
e 43 95
e 43 96
e 43 97
e 43 99
e 43 100
e 43 101
e 43 102
e 43 108
e 43 110
e 43 111
e 43 112
e 43 114
e 44 49
e 44 51
e 44 54
e 44 55
e 44 58
e 44 59
e 44 61
e 44 63
e 44 65
e 44 66
e 44 70
e 44 72
e 44 77
e 44 78
e 44 80
e 44 81
e 44 83
e 44 89
e 44 90
e 44 92
e 44 96
e 44 97
e 44 98
e 44 99
e 44 103
e 44 110
e 44 111
e 44 112
e 44 114
e 45 46
e 45 48
e 45 49
e 45 54
e 45 55
e 45 57
e 45 58
e 45 59
e 45 61
e 45 65
e 45 68
e 45 77
e 45 78
e 45 80
e 45 86
e 45 90
e 45 92
e 45 95
e 45 96
e 45 97
e 45 100
e 45 101
e 45 108
e 45 110
e 45 111
e 45 112
e 45 114
e 46 57
e 46 68
e 46 75
e 46 80
e 46 86
e 46 91
e 46 95
e 46 97
e 46 108
e 46 114
e 47 48
e 47 50
e 47 54
e 47 55
e 47 56
e 47 60
e 47 62
e 47 63
e 47 65
e 47 66
e 47 67
e 47 69
e 47 70
e 47 71
e 47 72
e 47 77
e 47 78
e 47 79
e 47 83
e 47 84
e 47 85
e 47 87
e 47 88
e 47 89
e 47 92
e 47 93
e 47 94
e 47 98
e 47 100
e 47 101
e 47 102
e 47 103
e 47 104
e 47 105
e 47 106
e 47 107
e 47 109
e 47 112
e 47 113
e 48 54
e 48 55
e 48 56
e 48 61
e 48 62
e 48 65
e 48 67
e 48 68
e 48 69
e 48 71
e 48 77
e 48 78
e 48 79
e 48 80
e 48 83
e 48 84
e 48 85
e 48 86
e 48 87
e 48 88
e 48 92
e 48 93
e 48 94
e 48 95
e 48 100
e 48 101
e 48 102
e 48 104
e 48 106
e 48 108
e 48 109
e 48 112
e 48 114
e 49 51
e 49 54
e 49 55
e 49 57
e 49 58
e 49 59
e 49 61
e 49 65
e 49 68
e 49 70
e 49 77
e 49 78
e 49 80
e 49 81
e 49 86
e 49 89
e 49 90
e 49 92
e 49 95
e 49 96
e 49 97
e 49 98
e 49 99
e 49 100
e 49 101
e 49 102
e 49 108
e 49 110
e 49 111
e 49 112
e 49 114
e 50 55
e 50 56
e 50 62
e 50 66
e 50 67
e 50 69
e 50 71
e 50 77
e 50 78
e 50 79
e 50 83
e 50 84
e 50 85
e 50 87
e 50 88
e 50 93
e 50 94
e 50 100
e 50 101
e 50 102
e 50 103
e 50 104
e 50 105
e 50 106
e 50 107
e 50 109
e 50 112
e 50 113
e 51 53
e 51 57
e 51 58
e 51 59
e 51 61
e 51 64
e 51 73
e 51 80
e 51 81
e 51 90
e 51 91
e 51 96
e 51 97
e 51 99
e 51 110
e 51 111
e 51 114
e 52 53
e 52 64
e 52 73
e 52 74
e 52 75
e 52 76
e 52 82
e 52 91
e 53 64
e 53 73
e 53 74
e 53 76
e 53 82
e 53 91
e 54 55
e 54 56
e 54 57
e 54 58
e 54 59
e 54 61
e 54 62
e 54 65
e 54 66
e 54 67
e 54 68
e 54 69
e 54 70
e 54 71
e 54 72
e 54 77
e 54 78
e 54 79
e 54 80
e 54 81
e 54 83
e 54 84
e 54 85
e 54 86
e 54 87
e 54 88
e 54 89
e 54 90
e 54 92
e 54 93
e 54 94
e 54 95
e 54 96
e 54 97
e 54 98
e 54 99
e 54 100
e 54 101
e 54 102
e 54 103
e 54 104
e 54 106
e 54 107
e 54 108
e 54 109
e 54 110
e 54 111
e 54 112
e 54 113
e 54 114
e 55 56
e 55 57
e 55 61
e 55 62
e 55 65
e 55 66
e 55 67
e 55 68
e 55 69
e 55 70
e 55 71
e 55 72
e 55 77
e 55 78
e 55 79
e 55 80
e 55 83
e 55 84
e 55 85
e 55 86
e 55 87
e 55 88
e 55 89
e 55 90
e 55 92
e 55 93
e 55 94
e 55 95
e 55 96
e 55 97
e 55 99
e 55 100
e 55 101
e 55 102
e 55 103
e 55 104
e 55 105
e 55 106
e 55 107
e 55 108
e 55 109
e 55 110
e 55 112
e 55 113
e 55 114
e 56 60
e 56 61
e 56 62
e 56 63
e 56 65
e 56 66
e 56 67
e 56 69
e 56 70
e 56 71
e 56 72
e 56 77
e 56 78
e 56 79
e 56 83
e 56 84
e 56 85
e 56 86
e 56 87
e 56 88
e 56 89
e 56 90
e 56 92
e 56 93
e 56 94
e 56 95
e 56 98
e 56 100
e 56 101
e 56 102
e 56 103
e 56 104
e 56 105
e 56 106
e 56 107
e 56 109
e 56 112
e 56 113
e 57 58
e 57 59
e 57 61
e 57 65
e 57 68
e 57 80
e 57 81
e 57 86
e 57 91
e 57 92
e 57 95
e 57 96
e 57 97
e 57 108
e 57 110
e 57 111
e 57 114
e 58 59
e 58 61
e 58 65
e 58 70
e 58 73
e 58 77
e 58 80
e 58 81
e 58 89
e 58 90
e 58 92
e 58 96
e 58 97
e 58 99
e 58 108
e 58 110
e 58 111
e 58 112
e 58 114
e 59 61
e 59 64
e 59 65
e 59 68
e 59 73
e 59 80
e 59 81
e 59 90
e 59 91
e 59 96
e 59 97
e 59 99
e 59 110
e 59 111
e 59 114
e 60 63
e 60 66
e 60 70
e 60 72
e 60 83
e 60 89
e 60 98
e 60 103
e 60 106
e 60 107
e 60 113
e 61 65
e 61 66
e 61 68
e 61 69
e 61 70
e 61 72
e 61 77
e 61 78
e 61 79
e 61 80
e 61 81
e 61 83
e 61 86
e 61 88
e 61 89
e 61 90
e 61 92
e 61 93
e 61 95
e 61 96
e 61 97
e 61 98
e 61 99
e 61 100
e 61 101
e 61 102
e 61 103
e 61 106
e 61 108
e 61 110
e 61 111
e 61 112
e 61 114
e 62 65
e 62 66
e 62 67
e 62 69
e 62 71
e 62 77
e 62 78
e 62 79
e 62 83
e 62 84
e 62 85
e 62 87
e 62 88
e 62 92
e 62 93
e 62 94
e 62 95
e 62 100
e 62 101
e 62 102
e 62 103
e 62 104
e 62 105
e 62 106
e 62 107
e 62 109
e 62 112
e 62 113
e 63 66
e 63 70
e 63 72
e 63 83
e 63 89
e 63 98
e 63 103
e 63 106
e 63 107
e 63 112
e 63 113
e 64 73
e 64 74
e 64 76
e 64 82
e 64 91
e 64 111
e 65 66
e 65 67
e 65 68
e 65 69
e 65 70
e 65 71
e 65 72
e 65 77
e 65 78
e 65 79
e 65 80
e 65 81
e 65 83
e 65 84
e 65 85
e 65 86
e 65 87
e 65 88
e 65 89
e 65 90
e 65 92
e 65 93
e 65 94
e 65 95
e 65 96
e 65 97
e 65 98
e 65 99
e 65 100
e 65 101
e 65 102
e 65 103
e 65 104
e 65 106
e 65 107
e 65 108
e 65 109
e 65 110
e 65 111
e 65 112
e 65 113
e 65 114
e 66 67
e 66 69
e 66 70
e 66 71
e 66 72
e 66 77
e 66 78
e 66 79
e 66 83
e 66 84
e 66 85
e 66 88
e 66 89
e 66 90
e 66 93
e 66 94
e 66 98
e 66 99
e 66 100
e 66 101
e 66 102
e 66 103
e 66 104
e 66 106
e 66 107
e 66 109
e 66 112
e 66 113
e 67 69
e 67 71
e 67 77
e 67 78
e 67 79
e 67 83
e 67 84
e 67 85
e 67 87
e 67 88
e 67 92
e 67 93
e 67 94
e 67 100
e 67 101
e 67 102
e 67 103
e 67 104
e 67 105
e 67 106
e 67 107
e 67 109
e 67 112
e 67 113
e 68 77
e 68 78
e 68 80
e 68 86
e 68 92
e 68 95
e 68 96
e 68 97
e 68 108
e 68 112
e 68 114
e 69 70
e 69 71
e 69 72
e 69 77
e 69 78
e 69 79
e 69 80
e 69 83
e 69 84
e 69 85
e 69 86
e 69 87
e 69 88
e 69 89
e 69 92
e 69 93
e 69 94
e 69 95
e 69 100
e 69 101
e 69 102
e 69 103
e 69 104
e 69 105
e 69 106
e 69 107
e 69 108
e 69 109
e 69 112
e 69 113
e 69 114
e 70 71
e 70 72
e 70 77
e 70 78
e 70 79
e 70 81
e 70 83
e 70 84
e 70 88
e 70 89
e 70 90
e 70 92
e 70 93
e 70 94
e 70 95
e 70 96
e 70 98
e 70 99
e 70 100
e 70 101
e 70 102
e 70 103
e 70 104
e 70 106
e 70 107
e 70 110
e 70 112
e 70 113
e 71 72
e 71 77
e 71 78
e 71 79
e 71 83
e 71 84
e 71 85
e 71 87
e 71 88
e 71 92
e 71 93
e 71 94
e 71 100
e 71 101
e 71 102
e 71 103
e 71 104
e 71 105
e 71 106
e 71 107
e 71 109
e 71 112
e 71 113
e 72 77
e 72 78
e 72 81
e 72 83
e 72 84
e 72 88
e 72 89
e 72 90
e 72 93
e 72 94
e 72 98
e 72 99
e 72 100
e 72 101
e 72 102
e 72 103
e 72 104
e 72 106
e 72 107
e 72 109
e 72 110
e 72 112
e 72 113
e 73 74
e 73 76
e 73 81
e 73 97
e 73 110
e 73 111
e 74 75
e 74 76
e 74 82
e 74 91
e 75 76
e 75 82
e 75 91
e 76 82
e 76 91
e 77 78
e 77 79
e 77 80
e 77 81
e 77 83
e 77 84
e 77 85
e 77 86
e 77 87
e 77 88
e 77 89
e 77 90
e 77 92
e 77 93
e 77 94
e 77 95
e 77 96
e 77 97
e 77 98
e 77 99
e 77 100
e 77 101
e 77 102
e 77 103
e 77 104
e 77 105
e 77 106
e 77 107
e 77 108
e 77 109
e 77 110
e 77 112
e 77 113
e 77 114
e 78 79
e 78 80
e 78 83
e 78 84
e 78 85
e 78 86
e 78 87
e 78 88
e 78 89
e 78 90
e 78 92
e 78 93
e 78 94
e 78 95
e 78 96
e 78 97
e 78 98
e 78 100
e 78 101
e 78 102
e 78 103
e 78 104
e 78 105
e 78 106
e 78 107
e 78 108
e 78 109
e 78 110
e 78 112
e 78 113
e 78 114
e 79 80
e 79 83
e 79 84
e 79 85
e 79 86
e 79 87
e 79 88
e 79 89
e 79 92
e 79 93
e 79 94
e 79 95
e 79 100
e 79 101
e 79 102
e 79 103
e 79 104
e 79 105
e 79 106
e 79 107
e 79 108
e 79 109
e 79 112
e 79 113
e 80 81
e 80 86
e 80 90
e 80 92
e 80 93
e 80 95
e 80 96
e 80 97
e 80 99
e 80 100
e 80 101
e 80 102
e 80 108
e 80 110
e 80 111
e 80 112
e 80 114
e 81 89
e 81 90
e 81 96
e 81 97
e 81 98
e 81 99
e 81 103
e 81 110
e 81 111
e 81 112
e 81 114
e 82 91
e 83 84
e 83 85
e 83 87
e 83 88
e 83 89
e 83 90
e 83 92
e 83 93
e 83 94
e 83 98
e 83 100
e 83 101
e 83 102
e 83 103
e 83 104
e 83 105
e 83 106
e 83 107
e 83 109
e 83 112
e 83 113
e 84 85
e 84 87
e 84 88
e 84 89
e 84 92
e 84 93
e 84 94
e 84 98
e 84 100
e 84 101
e 84 102
e 84 103
e 84 104
e 84 105
e 84 106
e 84 107
e 84 109
e 84 112
e 84 113
e 85 87
e 85 88
e 85 92
e 85 93
e 85 94
e 85 100
e 85 101
e 85 102
e 85 103
e 85 104
e 85 105
e 85 106
e 85 107
e 85 109
e 85 112
e 85 113
e 86 88
e 86 92
e 86 93
e 86 94
e 86 95
e 86 97
e 86 100
e 86 101
e 86 102
e 86 106
e 86 108
e 86 112
e 86 114
e 87 88
e 87 92
e 87 93
e 87 94
e 87 100
e 87 101
e 87 102
e 87 104
e 87 105
e 87 106
e 87 107
e 87 109
e 87 112
e 87 113
e 88 89
e 88 92
e 88 93
e 88 94
e 88 95
e 88 98
e 88 100
e 88 101
e 88 102
e 88 103
e 88 104
e 88 105
e 88 106
e 88 107
e 88 109
e 88 112
e 88 113
e 89 90
e 89 92
e 89 93
e 89 96
e 89 98
e 89 99
e 89 100
e 89 101
e 89 102
e 89 103
e 89 104
e 89 106
e 89 107
e 89 110
e 89 112
e 89 113
e 90 92
e 90 96
e 90 97
e 90 98
e 90 99
e 90 100
e 90 103
e 90 108
e 90 110
e 90 111
e 90 112
e 90 114
e 91 97
e 91 111
e 92 93
e 92 94
e 92 95
e 92 96
e 92 97
e 92 99
e 92 100
e 92 101
e 92 102
e 92 103
e 92 104
e 92 106
e 92 107
e 92 108
e 92 109
e 92 110
e 92 112
e 92 114
e 93 94
e 93 95
e 93 98
e 93 100
e 93 101
e 93 102
e 93 103
e 93 104
e 93 105
e 93 106
e 93 107
e 93 108
e 93 109
e 93 112
e 93 113
e 94 95
e 94 100
e 94 101
e 94 102
e 94 103
e 94 104
e 94 105
e 94 106
e 94 107
e 94 109
e 94 112
e 94 113
e 95 96
e 95 97
e 95 100
e 95 101
e 95 102
e 95 104
e 95 106
e 95 108
e 95 112
e 95 114
e 96 97
e 96 98
e 96 99
e 96 108
e 96 110
e 96 111
e 96 112
e 96 114
e 97 99
e 97 108
e 97 110
e 97 111
e 97 112
e 97 114
e 98 99
e 98 100
e 98 101
e 98 102
e 98 103
e 98 106
e 98 107
e 98 110
e 98 112
e 98 113
e 99 103
e 99 110
e 99 111
e 99 112
e 99 114
e 100 101
e 100 102
e 100 103
e 100 104
e 100 105
e 100 106
e 100 107
e 100 108
e 100 109
e 100 112
e 100 113
e 100 114
e 101 102
e 101 103
e 101 104
e 101 105
e 101 106
e 101 107
e 101 108
e 101 109
e 101 112
e 101 113
e 101 114
e 102 103
e 102 104
e 102 105
e 102 106
e 102 107
e 102 108
e 102 109
e 102 112
e 102 113
e 102 114
e 103 104
e 103 106
e 103 107
e 103 109
e 103 110
e 103 112
e 103 113
e 104 105
e 104 106
e 104 107
e 104 109
e 104 112
e 104 113
e 105 106
e 105 107
e 105 109
e 105 113
e 106 107
e 106 109
e 106 112
e 106 113
e 107 109
e 107 112
e 107 113
e 108 110
e 108 111
e 108 112
e 108 114
e 109 112
e 109 113
e 110 111
e 110 112
e 110 114
e 111 114
e 112 113
e 112 114
